# Solution for model icep
# Objective value = 0
flowLmbda[0,0] 0
flowLmbda[1,0] 0
flowBeta[0,0,0,0] 0
flowBeta[0,0,0,1] 0
flowBeta[0,0,1,0] 0
flowBeta[0,0,1,1] 0
flowBeta[0,1,0,0] 0
flowBeta[0,1,0,1] 0
flowBeta[0,1,1,0] 0
flowBeta[0,1,1,1] 0
flowBeta[0,2,0,0] 0
flowBeta[0,2,0,1] 0
flowBeta[0,2,1,0] 0
flowBeta[0,2,1,1] 0
flowBeta[1,0,0,0] 0
flowBeta[1,0,0,1] 0
flowBeta[1,0,1,0] 0
flowBeta[1,0,1,1] 0
flowBeta[1,1,0,0] 0
flowBeta[1,1,0,1] 0
flowBeta[1,1,1,0] 0
flowBeta[1,1,1,1] 0
flowBeta[1,2,0,0] 0
flowBeta[1,2,0,1] 0
flowBeta[1,2,1,0] 0
flowBeta[1,2,1,1] 0
flowGamma[0,0,0,0] 0
flowGamma[0,0,0,1] 0
flowGamma[0,0,1,0] 0
flowGamma[0,0,1,1] 0
flowGamma[0,1,0,0] 0
flowGamma[0,1,0,1] 0
flowGamma[0,1,1,0] 0
flowGamma[0,1,1,1] 0
flowGamma[0,2,0,0] 0
flowGamma[0,2,0,1] 0
flowGamma[0,2,1,0] 0
flowGamma[0,2,1,1] 0
flowGamma[1,0,0,0] 0
flowGamma[1,0,0,1] 0
flowGamma[1,0,1,0] 0
flowGamma[1,0,1,1] 0
flowGamma[1,1,0,0] 0
flowGamma[1,1,0,1] 0
flowGamma[1,1,1,0] 0
flowGamma[1,1,1,1] 0
flowGamma[1,2,0,0] 0
flowGamma[1,2,0,1] 0
flowGamma[1,2,1,0] 0
flowGamma[1,2,1,1] 0
flowEpsilon[0,0,0,0] 0
flowEpsilon[0,0,1,0] 0
flowEpsilon[0,1,0,0] 0
flowEpsilon[0,1,1,0] 0
flowEpsilon[0,2,0,0] 0
flowEpsilon[0,2,1,0] 0
flowEpsilon[1,0,0,0] 0
flowEpsilon[1,0,1,0] 0
flowEpsilon[1,1,0,0] 0
flowEpsilon[1,1,1,0] 0
flowEpsilon[1,2,0,0] 0
flowEpsilon[1,2,1,0] 0
psiSelect[0,0,0] 0
psiSelect[0,0,1] 0
psiSelect[0,1,0] 0
psiSelect[0,1,1] 0
psiSelect[1,0,0] 0
psiSelect[1,0,1] 0
psiSelect[1,1,0] 0
psiSelect[1,1,1] 0
gammaSelect[0,0,0,0] 0
gammaSelect[0,0,0,1] 0
gammaSelect[0,0,1,0] 0
gammaSelect[0,0,1,1] 0
gammaSelect[0,1,0,0] 0
gammaSelect[0,1,0,1] 0
gammaSelect[0,1,1,0] 0
gammaSelect[0,1,1,1] 0
gammaSelect[0,2,0,0] 0
gammaSelect[0,2,0,1] 0
gammaSelect[0,2,1,0] 0
gammaSelect[0,2,1,1] 0
gammaSelect[1,0,0,0] 0
gammaSelect[1,0,0,1] 0
gammaSelect[1,0,1,0] 0
gammaSelect[1,0,1,1] 0
gammaSelect[1,1,0,0] 0
gammaSelect[1,1,0,1] 0
gammaSelect[1,1,1,0] 0
gammaSelect[1,1,1,1] 0
gammaSelect[1,2,0,0] 0
gammaSelect[1,2,0,1] 0
gammaSelect[1,2,1,0] 0
gammaSelect[1,2,1,1] 0
deltaSelect[0,0,0,0] 0
deltaSelect[0,0,0,1] 0
deltaSelect[0,0,1,0] 0
deltaSelect[0,0,1,1] 0
deltaSelect[0,1,0,0] 0
deltaSelect[0,1,0,1] 0
deltaSelect[0,1,1,0] 0
deltaSelect[0,1,1,1] 0
deltaSelect[0,2,0,0] 0
deltaSelect[0,2,0,1] 0
deltaSelect[0,2,1,0] 0
deltaSelect[0,2,1,1] 0
deltaSelect[1,0,0,0] 0
deltaSelect[1,0,0,1] 0
deltaSelect[1,0,1,0] 0
deltaSelect[1,0,1,1] 0
deltaSelect[1,1,0,0] 0
deltaSelect[1,1,0,1] 0
deltaSelect[1,1,1,0] 0
deltaSelect[1,1,1,1] 0
deltaSelect[1,2,0,0] 0
deltaSelect[1,2,0,1] 0
deltaSelect[1,2,1,0] 0
deltaSelect[1,2,1,1] 0
timeForResourceI[0] 0
timeForResourceI[1] 0
totalTime 0
